peakDumbCharging = 11100; 
Machine = anon_enum(16); 
machineSpeed = [3700,3700,3700,3700,3700,3700,3700,3700,3700,3700,3700,3700,3700,3700,3700,3700]; 
machineLoad = [3700,3700,3700,3700,3700,3700,3700,3700,3700,3700,3700,3700,3700,3700,3700,3700]; 
Car = anon_enum(13); 
demandCar = [10360,21800,2880,11600,12760,6440,8800,7360,7120,4240,10320,13800,3640]; 
arrivalCar = [74,71,69,68,67,66,63,61,57,56,51,47,33]; 
departureCar = [79,80,71,76,72,69,69,64,61,59,56,53,35]; 
